p cnf 10 44
 -8 5 4 0
 4 -10 -6 0
 8 6 3 0
 -3 -6 2 0
 -1 -3 6 0
 2 8 -10 0
 1 -3 6 0
 9 -8 6 0
 -4 -8 3 0
 10 -1 -9 0
 7 2 -4 0
 8 -6 7 0
 -6 -7 8 0
 10 6 1 0
 10 -6 1 0
 -10 -3 5 0
 -1 6 8 0
 1 9 -8 0
 -6 -9 -7 0
 6 -7 -10 0
 2 -4 -7 0
 10 -8 9 0
 5 -4 -7 0
 -5 -3 2 0
 6 -5 1 0
 -5 -7 10 0
 -2 9 1 0
 1 9 5 0
 3 4 -1 0
 5 -10 1 0
 -10 8 -9 0
 1 -5 9 0
 -6 8 5 0
 -5 -4 6 0
 7 -1 -2 0
 -2 6 -4 0
 3 -5 -9 0
 -3 7 1 0
 -4 -1 -6 0
 -1 -6 5 0
 6 -9 1 0
 1 7 8 0
 -4 6 -8 0
 2 -10 -4 0
c 1 a_1
c 2 a_2
c 3 a_3
c 4 a_4
c 5 a_5
c 6 a_6
c 7 a_7
c 8 a_8
c 9 a_9
c 10 a_10
